
Welcome to IBM(R) ILOG(R) CPLEX(R) Interactive Optimizer 22.1.1.0
  with Simplex, Mixed Integer & Barrier Optimizers
5725-A06 5725-A29 5724-Y48 5724-Y49 5724-Y54 5724-Y55 5655-Y21
Copyright IBM Corp. 1988, 2022.  All Rights Reserved.

Type 'help' for a list of available commands.
Type 'help' followed by a command name for more
information on commands.

CPLEX> Selected objective sense:  MINIMIZE
Selected objective  name:  00000000
Selected RHS        name:  RHS1
Selected bound      name:  BOUND
Problem 'ee.mps' read.
Read time = 0.03 sec. (3.17 ticks)
CPLEX> New value for time limit in seconds: 7200
CPLEX> New value for parallel optimization mode: -1
CPLEX> New value for default parallel thread count: 40
CPLEX> New value for mixed integer optimality gap tolerance: 1e-13
CPLEX> Version identifier: 22.1.1.0 | 2022-11-28 | 9160aff4d
CPXPARAM_Threads                                 40
CPXPARAM_Parallel                                -1
CPXPARAM_TimeLimit                               7200
CPXPARAM_MIP_Tolerances_MIPGap                   1e-13
Found incumbent of value 0.000000 after 0.00 sec. (0.31 ticks)
Tried aggregator 2 times.
MIP Presolve eliminated 183 rows and 2745 columns.
MIP Presolve modified 6090 coefficients.
Aggregator did 713 substitutions.
Reduced MIP has 3636 rows, 7840 columns, and 28952 nonzeros.
Reduced MIP has 7840 binaries, 0 generals, 0 SOSs, and 0 indicators.
Presolve time = 0.07 sec. (69.16 ticks)
Probing time = 0.03 sec. (5.87 ticks)
Tried aggregator 1 time.
Detecting symmetries...
Reduced MIP has 3636 rows, 7840 columns, and 28952 nonzeros.
Reduced MIP has 7840 binaries, 0 generals, 0 SOSs, and 0 indicators.
Presolve time = 0.02 sec. (22.09 ticks)
Probing time = 0.02 sec. (5.67 ticks)
Clique table members: 18787.
MIP emphasis: balance optimality and feasibility.
MIP search method: dynamic search.
Parallel mode: opportunistic, using up to 40 threads.
Root relaxation solution time = 0.21 sec. (232.04 ticks)

        Nodes                                         Cuts/
   Node  Left     Objective  IInf  Best Integer    Best Bound    ItCnt     Gap

*     0+    0                            0.0000  -1.54000e+13              --- 
*     0+    0                      -8.19000e+12  -1.54000e+13            88.03%
      0     0  -1.53900e+13   103  -8.19000e+12  -1.53900e+13     2690   87.91%
*     0+    0                      -1.53900e+13  -1.53900e+13             0.00%
      0     0  -1.53900e+13   144  -1.53900e+13      Cuts: 83     3797    0.00%
*     0+    0                      -1.53900e+13  -1.53900e+13             0.00%
      0     0  -1.53900e+13   168  -1.53900e+13      Cuts: 91     4433    0.00%
      0     6    infeasible        -1.53900e+13  -1.53900e+13     6273    0.00%
Elapsed time = 2.48 sec. (1556.76 ticks, tree = 0.02 MB, solutions = 4)
    403    62        cutoff        -1.53900e+13  -1.53900e+13    27670    0.00%
   1132    91        cutoff        -1.53900e+13  -1.53900e+13    36348    0.00%
   1644   251        cutoff        -1.53900e+13  -1.53900e+13   165862    0.00%
   2114   222  -1.53900e+13   239  -1.53900e+13  -1.53900e+13   147421    0.00%
   3086   280  -1.53900e+13    92  -1.53900e+13  -1.53900e+13   191479    0.00%
   4005   422  -1.53900e+13   200  -1.53900e+13  -1.53900e+13   269945    0.00%
   4854   419  -1.53900e+13   104  -1.53900e+13  -1.53900e+13   261381    0.00%
   5816   801        cutoff        -1.53900e+13  -1.53900e+13   478356    0.00%
   6754   520  -1.53900e+13   102  -1.53900e+13  -1.53900e+13   310529    0.00%
   9193  1020        cutoff        -1.53900e+13  -1.53900e+13   592894    0.00%
Elapsed time = 9.02 sec. (4659.61 ticks, tree = 2.61 MB, solutions = 6)
  11655  1192        cutoff        -1.53900e+13  -1.53900e+13   849099    0.00%
  14008  1361        cutoff        -1.53900e+13  -1.53900e+13   915362    0.00%

Performing restart 1

Repeating presolve.
Tried aggregator 2 times.
MIP Presolve eliminated 608 rows and 2019 columns.
MIP Presolve modified 1518 coefficients.
Aggregator did 282 substitutions.
Reduced MIP has 2698 rows, 5495 columns, and 20102 nonzeros.
Reduced MIP has 5495 binaries, 0 generals, 0 SOSs, and 0 indicators.
Presolve time = 0.07 sec. (55.11 ticks)
Tried aggregator 2 times.
MIP Presolve eliminated 103 rows and 235 columns.
Aggregator did 43 substitutions.
Reduced MIP has 2552 rows, 5190 columns, and 19065 nonzeros.
Reduced MIP has 5190 binaries, 0 generals, 0 SOSs, and 0 indicators.
Presolve time = 0.04 sec. (32.07 ticks)
Tried aggregator 1 time.
Reduced MIP has 2552 rows, 5190 columns, and 19065 nonzeros.
Reduced MIP has 5190 binaries, 0 generals, 0 SOSs, and 0 indicators.
Presolve time = 0.02 sec. (14.01 ticks)
Represolve time = 0.32 sec. (198.95 ticks)
  14649     0  -1.53900e+13   340  -1.53900e+13      Cuts: 36  1294839    0.00%
  14649     0  -1.53900e+13   324  -1.53900e+13      Cuts: 40  1295110    0.00%
  14649     0  -1.53900e+13   360  -1.53900e+13      Cuts: 30  1295538    0.00%
  14649     0  -1.53900e+13   368  -1.53900e+13      Cuts: 31  1295729    0.00%
  14649     0  -1.53900e+13   367  -1.53900e+13      Cuts: 29  1295896    0.00%
  14649    12        cutoff        -1.53900e+13  -1.53900e+13  1314185    0.00%
  16578    73  -1.53900e+13   163  -1.53900e+13  -1.53900e+13  1333237    0.00%
  20450   146  -1.53900e+13   161  -1.53900e+13  -1.53900e+13  1352317    0.00%
  22960   543  -1.53900e+13   180  -1.53900e+13  -1.53900e+13  1542799    0.00%
  25337   215  -1.53900e+13   163  -1.53900e+13  -1.53900e+13  1718313    0.00%
  27375    47  -1.53900e+13   101  -1.53900e+13  -1.53900e+13  1874529    0.00%
  27831    57        cutoff        -1.53900e+13  -1.53900e+13  1826873    0.00%

GUB cover cuts applied:  19
Clique cuts applied:  19
Cover cuts applied:  416
Mixed integer rounding cuts applied:  20
Zero-half cuts applied:  50
Lift and project cuts applied:  8
Gomory fractional cuts applied:  26

Root node processing (before b&c):
  Real time             =    1.69 sec. (1554.13 ticks)
Parallel b&c, 40 threads:
  Real time             =   22.67 sec. (14082.91 ticks)
  Sync time (average)   =    6.23 sec.
  Wait time (average)   =    0.11 sec.
                          ------------
Total (root+branch&cut) =   24.36 sec. (15637.04 ticks)

Solution pool: 6 solutions saved.

MIP - Integer optimal solution:  Objective = -1.5389999289e+13
Solution time =   24.47 sec.  Iterations = 1911610  Nodes = 27921
Deterministic time = 15637.07 ticks  (639.10 ticks/sec)

CPLEX> Solution 'p7' written to file 'ee.sol'.
CPLEX> 